cell(0,2,0).
cell(0,2,1).
cell(0,2,2).
cell(0,2,3).
cell(0,3,0).
cell(0,3,1).
cell(0,3,2).
cell(0,3,3).
cell(1,3,0).
cell(1,3,1).
cell(1,3,2).
cell(1,3,3).
cell(2,1,0).
cell(2,1,1).
cell(2,1,2).
cell(2,1,3).
cell(2,2,0).
cell(2,2,1).
cell(2,2,2).
cell(2,2,3).
cell(2,3,0).
cell(2,3,1).
cell(2,3,2).
cell(2,3,3).
cell(2,4,0).
cell(2,4,1).
cell(2,4,2).
cell(2,4,3).
cell(2,5,0).
cell(2,5,1).
cell(2,5,2).
cell(2,5,3).
cell(3,0,0).
cell(3,0,1).
cell(3,0,2).
cell(3,0,3).
cell(3,1,0).
cell(3,1,1).
cell(3,1,2).
cell(3,1,3).
cell(3,4,0).
cell(3,4,1).
cell(3,4,2).
cell(3,4,3).
cell(3,5,0).
cell(3,5,1).
cell(3,5,2).
cell(3,5,3).
cell(3,6,0).
cell(3,6,1).
cell(3,6,2).
cell(3,6,3).
cell(4,1,0).
cell(4,1,1).
cell(4,1,2).
cell(4,1,3).
cell(4,5,0).
cell(4,5,1).
cell(4,5,2).
cell(4,5,3).
cell(5,1,0).
cell(5,1,1).
cell(5,1,2).
cell(5,1,3).
