cube("I", 1, 0, 0, 0). cube("I", 1, 0, 0, 1). cube("I", 1, 0, 0, 2). cube("I", 1, 0, 0, 3). 
cube("I", 2, 0, 0, 0). cube("I", 2, 0, 1, 0). cube("I", 2, 0, 2, 0). cube("I", 2, 0, 3, 0). 
cube("I", 3, 0, 0, 0). cube("I", 3, 1, 0, 0). cube("I", 3, 2, 0, 0). cube("I", 3, 3, 0, 0). 

cube("T", 1, 0, 0, 0). cube("T", 1, 0, 0, 1). cube("T", 1, 0, 0, 2). cube("T", 1, 0, 1, 1). 
cube("T", 2, 0, 0, 1). cube("T", 2, 0, 1, 0). cube("T", 2, 0, 1, 1). cube("T", 2, 0, 2, 1). 
cube("T", 3, 0, 0, 1). cube("T", 3, 0, 1, 0). cube("T", 3, 0, 1, 1). cube("T", 3, 0, 1, 2). 
cube("T", 4, 0, 0, 0). cube("T", 4, 0, 1, 0). cube("T", 4, 0, 1, 1). cube("T", 4, 0, 2, 0). 
cube("T", 5, 0, 0, 0). cube("T", 5, 0, 0, 1). cube("T", 5, 0, 0, 2). cube("T", 5, 1, 0, 1). 
cube("T", 6, 0, 0, 0). cube("T", 6, 0, 1, 0). cube("T", 6, 0, 2, 0). cube("T", 6, 1, 1, 0). 
cube("T", 7, 0, 0, 1). cube("T", 7, 1, 0, 0). cube("T", 7, 1, 0, 1). cube("T", 7, 1, 0, 2). 
cube("T", 8, 0, 1, 0). cube("T", 8, 1, 0, 0). cube("T", 8, 1, 1, 0). cube("T", 8, 1, 2, 0). 
cube("T", 9, 0, 0, 0). cube("T", 9, 1, 0, 0). cube("T", 9, 1, 0, 1). cube("T", 9, 2, 0, 0). 
cube("T", 10, 0, 0, 0). cube("T", 10, 1, 0, 0). cube("T", 10, 1, 1, 0). cube("T", 10, 2, 0, 0). 
cube("T", 11, 0, 0, 1). cube("T", 11, 1, 0, 0). cube("T", 11, 1, 0, 1). cube("T", 11, 2, 0, 1). 
cube("T", 12, 0, 1, 0). cube("T", 12, 1, 0, 0). cube("T", 12, 1, 1, 0). cube("T", 12, 2, 1, 0). 

cube("L", 1, 0, 0, 0). cube("L", 1, 0, 0, 1). cube("L", 1, 0, 0, 2). cube("L", 1, 0, 1, 0). 
cube("L", 2, 0, 0, 0). cube("L", 2, 0, 0, 1). cube("L", 2, 0, 1, 1). cube("L", 2, 0, 2, 1). 
cube("L", 3, 0, 0, 2). cube("L", 3, 0, 1, 0). cube("L", 3, 0, 1, 1). cube("L", 3, 0, 1, 2). 
cube("L", 4, 0, 0, 0). cube("L", 4, 0, 1, 0). cube("L", 4, 0, 2, 0). cube("L", 4, 0, 2, 1). 
cube("L", 5, 0, 0, 0). cube("L", 5, 0, 0, 1). cube("L", 5, 0, 0, 2). cube("L", 5, 0, 1, 2). 
cube("L", 6, 0, 0, 1). cube("L", 6, 0, 1, 1). cube("L", 6, 0, 2, 0). cube("L", 6, 0, 2, 1). 
cube("L", 7, 0, 0, 0). cube("L", 7, 0, 1, 0). cube("L", 7, 0, 1, 1). cube("L", 7, 0, 1, 2). 
cube("L", 8, 0, 0, 0). cube("L", 8, 0, 0, 1). cube("L", 8, 0, 1, 0). cube("L", 8, 0, 2, 0). 
cube("L", 9, 0, 0, 0). cube("L", 9, 0, 0, 1). cube("L", 9, 0, 0, 2). cube("L", 9, 1, 0, 2). 
cube("L", 10, 0, 0, 0). cube("L", 10, 0, 1, 0). cube("L", 10, 0, 2, 0). cube("L", 10, 1, 2, 0). 
cube("L", 11, 0, 0, 0). cube("L", 11, 0, 0, 1). cube("L", 11, 0, 0, 2). cube("L", 11, 1, 0, 0). 
cube("L", 12, 0, 0, 0). cube("L", 12, 0, 1, 0). cube("L", 12, 0, 2, 0). cube("L", 12, 1, 0, 0). 
cube("L", 13, 0, 0, 0). cube("L", 13, 1, 0, 0). cube("L", 13, 1, 0, 1). cube("L", 13, 1, 0, 2). 
cube("L", 14, 0, 0, 0). cube("L", 14, 1, 0, 0). cube("L", 14, 1, 1, 0). cube("L", 14, 1, 2, 0). 
cube("L", 15, 0, 0, 2). cube("L", 15, 1, 0, 0). cube("L", 15, 1, 0, 1). cube("L", 15, 1, 0, 2). 
cube("L", 16, 0, 2, 0). cube("L", 16, 1, 0, 0). cube("L", 16, 1, 1, 0). cube("L", 16, 1, 2, 0). 
cube("L", 17, 0, 0, 0). cube("L", 17, 0, 0, 1). cube("L", 17, 1, 0, 0). cube("L", 17, 2, 0, 0). 
cube("L", 18, 0, 0, 0). cube("L", 18, 0, 1, 0). cube("L", 18, 1, 0, 0). cube("L", 18, 2, 0, 0). 
cube("L", 19, 0, 0, 0). cube("L", 19, 0, 0, 1). cube("L", 19, 1, 0, 1). cube("L", 19, 2, 0, 1). 
cube("L", 20, 0, 0, 0). cube("L", 20, 0, 1, 0). cube("L", 20, 1, 1, 0). cube("L", 20, 2, 1, 0). 
cube("L", 21, 0, 0, 1). cube("L", 21, 1, 0, 1). cube("L", 21, 2, 0, 0). cube("L", 21, 2, 0, 1). 
cube("L", 22, 0, 1, 0). cube("L", 22, 1, 1, 0). cube("L", 22, 2, 0, 0). cube("L", 22, 2, 1, 0). 
cube("L", 23, 0, 0, 0). cube("L", 23, 1, 0, 0). cube("L", 23, 2, 0, 0). cube("L", 23, 2, 0, 1). 
cube("L", 24, 0, 0, 0). cube("L", 24, 1, 0, 0). cube("L", 24, 2, 0, 0). cube("L", 24, 2, 1, 0). 

cube("Pyramid", 1, 0, 0, 0). cube("Pyramid", 1, 0, 0, 1). cube("Pyramid", 1, 0, 1, 0). cube("Pyramid", 1, 1, 0, 0). 
cube("Pyramid", 2, 0, 0, 0). cube("Pyramid", 2, 0, 0, 1). cube("Pyramid", 2, 0, 1, 1). cube("Pyramid", 2, 1, 0, 1). 
cube("Pyramid", 3, 0, 0, 1). cube("Pyramid", 3, 0, 1, 0). cube("Pyramid", 3, 0, 1, 1). cube("Pyramid", 3, 1, 1, 1). 
cube("Pyramid", 4, 0, 0, 0). cube("Pyramid", 4, 0, 1, 0). cube("Pyramid", 4, 0, 1, 1). cube("Pyramid", 4, 1, 1, 0). 
cube("Pyramid", 5, 0, 0, 1). cube("Pyramid", 5, 1, 0, 0). cube("Pyramid", 5, 1, 0, 1). cube("Pyramid", 5, 1, 1, 1). 
cube("Pyramid", 6, 0, 1, 1). cube("Pyramid", 6, 1, 0, 1). cube("Pyramid", 6, 1, 1, 0). cube("Pyramid", 6, 1, 1, 1). 
cube("Pyramid", 7, 0, 1, 0). cube("Pyramid", 7, 1, 0, 0). cube("Pyramid", 7, 1, 1, 0). cube("Pyramid", 7, 1, 1, 1). 
cube("Pyramid", 8, 0, 0, 0). cube("Pyramid", 8, 1, 0, 0). cube("Pyramid", 8, 1, 0, 1). cube("Pyramid", 8, 1, 1, 0). 

cube("O", 1, 0, 0, 0). cube("O", 1, 0, 0, 1). cube("O", 1, 0, 1, 0). cube("O", 1, 0, 1, 1). 
cube("O", 2, 0, 0, 0). cube("O", 2, 0, 0, 1). cube("O", 2, 1, 0, 0). cube("O", 2, 1, 0, 1). 
cube("O", 3, 0, 0, 0). cube("O", 3, 0, 1, 0). cube("O", 3, 1, 0, 0). cube("O", 3, 1, 1, 0). 

cube("N", 1, 0, 0, 0). cube("N", 1, 0, 0, 1). cube("N", 1, 0, 1, 1). cube("N", 1, 0, 1, 2). 
cube("N", 2, 0, 0, 1). cube("N", 2, 0, 1, 0). cube("N", 2, 0, 1, 1). cube("N", 2, 0, 2, 0). 
cube("N", 3, 0, 0, 1). cube("N", 3, 0, 0, 2). cube("N", 3, 0, 1, 0). cube("N", 3, 0, 1, 1). 
cube("N", 4, 0, 0, 0). cube("N", 4, 0, 1, 0). cube("N", 4, 0, 1, 1). cube("N", 4, 0, 2, 1). 
cube("N", 5, 0, 0, 1). cube("N", 5, 0, 0, 2). cube("N", 5, 1, 0, 0). cube("N", 5, 1, 0, 1). 
cube("N", 6, 0, 1, 0). cube("N", 6, 0, 2, 0). cube("N", 6, 1, 0, 0). cube("N", 6, 1, 1, 0). 
cube("N", 7, 0, 0, 0). cube("N", 7, 0, 0, 1). cube("N", 7, 1, 0, 1). cube("N", 7, 1, 0, 2). 
cube("N", 8, 0, 0, 0). cube("N", 8, 0, 1, 0). cube("N", 8, 1, 1, 0). cube("N", 8, 1, 2, 0). 
cube("N", 9, 0, 0, 0). cube("N", 9, 1, 0, 0). cube("N", 9, 1, 0, 1). cube("N", 9, 2, 0, 1). 
cube("N", 10, 0, 0, 0). cube("N", 10, 1, 0, 0). cube("N", 10, 1, 1, 0). cube("N", 10, 2, 1, 0). 
cube("N", 11, 0, 0, 1). cube("N", 11, 1, 0, 0). cube("N", 11, 1, 0, 1). cube("N", 11, 2, 0, 0). 
cube("N", 12, 0, 1, 0). cube("N", 12, 1, 0, 0). cube("N", 12, 1, 1, 0). cube("N", 12, 2, 0, 0). 

cube("Z", 1, 0, 0, 0). cube("Z", 1, 0, 0, 1). cube("Z", 1, 0, 1, 0). cube("Z", 1, 1, 1, 0). 
cube("Z", 2, 0, 0, 0). cube("Z", 2, 0, 0, 1). cube("Z", 2, 0, 1, 1). cube("Z", 2, 1, 0, 0). 
cube("Z", 3, 0, 0, 1). cube("Z", 3, 0, 1, 0). cube("Z", 3, 0, 1, 1). cube("Z", 3, 1, 0, 1). 
cube("Z", 4, 0, 0, 0). cube("Z", 4, 0, 1, 0). cube("Z", 4, 0, 1, 1). cube("Z", 4, 1, 1, 1). 
cube("Z", 5, 0, 1, 1). cube("Z", 5, 1, 0, 0). cube("Z", 5, 1, 0, 1). cube("Z", 5, 1, 1, 1). 
cube("Z", 6, 0, 1, 0). cube("Z", 6, 1, 0, 1). cube("Z", 6, 1, 1, 0). cube("Z", 6, 1, 1, 1). 
cube("Z", 7, 0, 0, 0). cube("Z", 7, 1, 0, 0). cube("Z", 7, 1, 1, 0). cube("Z", 7, 1, 1, 1). 
cube("Z", 8, 0, 0, 1). cube("Z", 8, 1, 0, 0). cube("Z", 8, 1, 0, 1). cube("Z", 8, 1, 1, 0). 
cube("Z", 9, 0, 0, 0). cube("Z", 9, 0, 0, 1). cube("Z", 9, 1, 0, 1). cube("Z", 9, 1, 1, 1). 
cube("Z", 10, 0, 0, 1). cube("Z", 10, 0, 1, 1). cube("Z", 10, 1, 1, 0). cube("Z", 10, 1, 1, 1). 
cube("Z", 11, 0, 1, 0). cube("Z", 11, 0, 1, 1). cube("Z", 11, 1, 0, 0). cube("Z", 11, 1, 1, 0). 
cube("Z", 12, 0, 0, 0). cube("Z", 12, 0, 1, 0). cube("Z", 12, 1, 0, 0). cube("Z", 12, 1, 0, 1). 

cube("Z_mirror", 1, 0, 0, 0). cube("Z_mirror", 1, 0, 0, 1). cube("Z_mirror", 1, 0, 1, 0). cube("Z_mirror", 1, 1, 0, 1). 
cube("Z_mirror", 2, 0, 0, 0). cube("Z_mirror", 2, 0, 0, 1). cube("Z_mirror", 2, 0, 1, 1). cube("Z_mirror", 2, 1, 1, 1). 
cube("Z_mirror", 3, 0, 0, 1). cube("Z_mirror", 3, 0, 1, 0). cube("Z_mirror", 3, 0, 1, 1). cube("Z_mirror", 3, 1, 1, 0). 
cube("Z_mirror", 4, 0, 0, 0). cube("Z_mirror", 4, 0, 1, 0). cube("Z_mirror", 4, 0, 1, 1). cube("Z_mirror", 4, 1, 0, 0). 
cube("Z_mirror", 5, 0, 0, 0). cube("Z_mirror", 5, 1, 0, 0). cube("Z_mirror", 5, 1, 0, 1). cube("Z_mirror", 5, 1, 1, 1). 
cube("Z_mirror", 6, 0, 0, 1). cube("Z_mirror", 6, 1, 0, 1). cube("Z_mirror", 6, 1, 1, 0). cube("Z_mirror", 6, 1, 1, 1). 
cube("Z_mirror", 7, 0, 1, 1). cube("Z_mirror", 7, 1, 0, 0). cube("Z_mirror", 7, 1, 1, 0). cube("Z_mirror", 7, 1, 1, 1). 
cube("Z_mirror", 8, 0, 1, 0). cube("Z_mirror", 8, 1, 0, 0). cube("Z_mirror", 8, 1, 0, 1). cube("Z_mirror", 8, 1, 1, 0). 
cube("Z_mirror", 9, 0, 0, 0). cube("Z_mirror", 9, 0, 0, 1). cube("Z_mirror", 9, 1, 0, 0). cube("Z_mirror", 9, 1, 1, 0). 
cube("Z_mirror", 10, 0, 0, 1). cube("Z_mirror", 10, 0, 1, 1). cube("Z_mirror", 10, 1, 0, 0). cube("Z_mirror", 10, 1, 0, 1). 
cube("Z_mirror", 11, 0, 1, 0). cube("Z_mirror", 11, 0, 1, 1). cube("Z_mirror", 11, 1, 0, 1). cube("Z_mirror", 11, 1, 1, 1). 
cube("Z_mirror", 12, 0, 0, 0). cube("Z_mirror", 12, 0, 1, 0). cube("Z_mirror", 12, 1, 1, 0). cube("Z_mirror", 12, 1, 1, 1). 
